c ---- [ banner ] ------------------------------------------------------------
c
c Kissat SAT Solver
c 
c Copyright (c) 2021-2023 Armin Biere University of Freiburg
c Copyright (c) 2019-2021 Armin Biere Johannes Kepler University Linz
c 
c Version 3.1.1 unknown
c gcc (Ubuntu 9.4.0-1ubuntu1~20.04.2) 9.4.0 -W -Wall -O3 -DNDEBUG
c Mon Feb 26 18:18:52 CET 2024 Linux OptiPlex-7080 5.15.0-88-generic x86_64
c
c ---- [ parsing ] -----------------------------------------------------------
c
c opened and reading DIMACS file:
c
c   /home/oliveras/SAT-comp-2023//c40838cb3ed9babe51dc41185e70a3dd-hash_table_find_safety_size_11.cnf
c
c parsed 'p cnf 5277644 24486982' header
c closing input after reading 589182191 bytes (562 MB)
c finished parsing after 6.77 seconds
c
c ---- [ options ] -----------------------------------------------------------
c
c --seed=1                         (different from default '0')
c
c ---- [ solving ] -----------------------------------------------------------
c
c  seconds   switched conflicts       irredundant    variables
c           MB reductions redundant            trail       remaining
c            level restarts      binary           glue
c
c *  6.77 1525 0 0 0  0   0   0 3552512 17419475 0% 0 4706197 89%
c {  6.77 1525 0 0 0  0   0   0 3552512 17419475 0% 0 4706197 89%
c i  6.90 1525 641 0 0  0 1231 851 3552515 17419475 1% 15 4706196 89%
c -  8.78 1481 641 0 1  0 1231 844 3489540 17239369 1% 15 4706196 89%
c }  8.78 1481 641 1 1  0 1231 844 3489540 17239369 1% 15 4706196 89%
c [  8.78 1481 0 1 1  0 1231 844 3489540 17239369 0% 0 4706196 89%
c B  8.99 1518 0 1 1  0 1231 844 3489540 17239369 0% 0 4706196 89%
c ]  9.22 1518 370 2 1  0 1369 950 3489547 17239369 2% 77 4706196 89%
c {  9.22 1518 641 2 1  0 1369 950 3489547 17239369 1% 15 4706196 89%
c i  9.53 1518 645 2 1  0 1377 954 3489550 17239369 1% 15 4706195 89%
c i 14.83 1532 669 2 1  6 1482 1040 3489565 17239369 3% 17 4706193 89%
c i 17.07 1532 666 2 1 22 1513 1066 3489569 17239369 3% 23 4706192 89%
c i 19.04 1532 663 2 1 31 1534 1081 3489574 17239367 3% 26 4638908 88%
c i 19.04 1532 663 2 1 31 1535 1081 3489574 17239367 3% 26 4638847 88%
c i 22.40 1532 659 2 1 43 1553 1091 3489579 17239367 4% 26 4638786 88%
c i 25.17 1532 654 2 1 53 1565 1100 3489581 17239367 4% 26 4638663 88%
c i 25.63 1532 655 2 1 54 1568 1101 3489582 17239367 4% 26 4638599 88%
c i 26.60 1532 653 2 1 59 1576 1103 3489587 17239366 4% 26 4638535 88%
c i 34.15 1532 616 2 1 85 1688 1165 3489628 17239366 6% 25 4638534 88%
c i 34.87 1532 607 2 1 85 1718 1182 3489629 17239366 6% 24 4638533 88%
c
c  seconds     switched conflicts         irredundant     variables
c           MB  reductions  redundant              trail        remaining
c             level restarts         binary            glue
c
c i 34.90 1532 603 2 1 85 1734 1187 3489629 17239366 6% 24 4636017 88%
c i 36.45 1532 601 2 1 90 1769 1201 3489640 17239366 7% 25 4636014 88%
c i 36.48 1532 601 2 1 91 1770 1201 3489640 17239366 7% 25 4636010 88%
c i 37.45 1532 598 2 1 95 1781 1207 3489642 17239366 7% 26 4636009 88%
c i 37.98 1532 598 2 1 96 1787 1208 3489645 17239366 7% 26 4636006 88%
c i 38.46 1532 596 2 1 99 1792 1210 3489647 17239366 7% 26 4635948 88%
c i 38.96 1532 597 2 1 99 1793 1210 3489647 17239366 7% 26 4635887 88%
c - 39.74 1532 548 2 2 103 2462 143 3272555 17239366 5% 17 4635887 88%
c } 39.74 1532 548 3 2 103 2462 143 3272555 17239366 5% 17 4635887 88%
c [ 39.74 1532 370 3 2 103 2462 143 3272555 17239366 2% 77 4635887 88%
c W 43.94 1537 370 3 2 103 2462 143 3272555 16616681 2% 77 4635887 88%
c i 44.41 1537 376 3 2 103 2473 145 3272556 16616681 2% 83 4635886 88%
c i 44.92 1537 380 3 2 103 2480 147 3272557 16616681 2% 82 4635879 88%
c i 45.15 1537 385 3 2 103 2491 156 3272557 16616681 4% 76 4635877 88%
c i 46.72 1537 393 3 2 103 2512 171 3272560 16616681 6% 85 4635876 88%
c i 47.01 1537 395 3 2 103 2518 172 3272562 16616681 6% 81 4635814 88%
c i 47.49 1537 398 3 2 103 2532 174 3272569 16616681 6% 78 4635811 88%
c i 47.86 1537 399 3 2 103 2538 179 3272569 16616681 7% 76 4635810 88%
c i 49.31 1537 403 3 2 103 2571 202 3272572 16616681 9% 79 4635805 88%
c i 50.31 1537 403 3 2 103 2587 204 3272580 16616681 9% 76 4635801 88%
c
c  seconds     switched conflicts         irredundant      variables
c           MB  reductions   redundant              trail        remaining
c             level restarts         binary             glue
c
c i 50.72 1537 403 3 2 103 2596 212 3272580 16616681 10% 73 4635800 88%
c i 52.47 1538 404 3 2 103 2614 223 3272584 16616681 11% 76 4635799 88%
c i 52.77 1538 404 3 2 103 2622 224 3272586 16616681 11% 74 4635794 88%
c i 53.26 1538 402 3 2 103 2638 226 3272594 16616681 10% 72 4635790 88%
c i 53.80 1538 401 3 2 103 2646 231 3272596 16616681 11% 70 4635789 88%
c i 55.13 1538 400 3 2 103 2661 241 3272600 16616681 12% 71 4635788 88%
c i 55.43 1538 399 3 2 103 2669 242 3272602 16616681 12% 69 4635783 88%
c i 56.18 1538 396 3 2 103 2685 244 3272610 16616681 11% 67 4635779 88%
c i 56.44 1538 395 3 2 103 2691 249 3272610 16616681 12% 66 4635778 88%
c i 59.47 1538 389 3 2 103 2736 281 3272617 16616681 13% 71 4635774 88%
c i 60.67 1538 385 3 2 103 2755 283 3272627 16616681 13% 69 4635769 88%
c i 61.41 1538 383 3 2 103 2767 288 3272630 16616681 12% 70 4635765 88%
c i 62.38 1538 378 3 2 103 2787 293 3272640 16616681 12% 70 4635760 88%
c i 63.15 1538 375 3 2 103 2799 298 3272643 16616681 12% 71 4635756 88%
c i 64.12 1538 370 3 2 103 2817 300 3272654 16616681 12% 68 4635751 88%
c i 64.86 1538 366 3 2 103 2829 305 3272657 16616681 12% 69 4635747 88%
c i 65.83 1538 360 3 2 103 2849 310 3272667 16616681 12% 68 4635742 88%
c ] 75.44 1548 389 4 2 103 3402 514 3272792 16616681 33% 42 4635742 88%
c { 75.44 1548 548 4 2 103 3402 514 3272792 16616681 5% 17 4635742 88%
c - 82.15 1553 524 4 3 103 3877 508 3272420 16616681 12% 16 4635742 88%
c
c  seconds     switched conflicts         irredundant      variables
c           MB  reductions   redundant              trail        remaining
c             level restarts         binary             glue
c
c i 89.71 1555 509 4 3 103 4196 572 3272469 16616681 16% 16 4635739 88%
c i 90.87 1555 507 4 3 103 4210 584 3272470 16616681 16% 16 4635736 88%
c i 97.43 1558 534 4 3 105 4500 735 3272495 16616681 16% 15 4635731 88%
c i 100.49 1558 532 4 3 113 4524 751 3272498 16616681 16% 16 4635726 88%
c i 101.90 1558 528 4 3 118 4571 790 3272500 16616681 17% 15 4635642 88%
c i 102.07 1558 528 4 3 118 4574 791 3272501 16616681 17% 16 4635641 88%
c i 102.07 1558 528 4 3 119 4576 791 3272502 16616680 17% 16 4635581 88%
c i 102.33 1558 528 4 3 120 4577 791 3272502 16616680 17% 16 4635580 88%
c i 105.16 1563 510 4 3 127 4745 946 3272512 16616680 17% 15 3355365 64%
c i 105.17 1563 510 4 3 128 4746 946 3272512 16616680 17% 15 3330113 63%
c i 105.46 1563 509 4 3 131 4758 951 3272518 16616679 17% 15 3330071 63%
c i 105.73 1563 509 4 3 131 4784 973 3272521 16616679 17% 15 3328893 63%
c i 110.71 1565 511 4 3 139 5350 1143 3272625 16616679 19% 15 3328851 63%
c i 110.83 1565 511 4 3 141 5355 1144 3272627 16616678 19% 15 3328809 63%
c d 112.35 1567 512 4 3 141 5361 875 5137148 8053980 19% 15 3271568 62%
c b 113.85 1634 512 4 3 141 5361 875 5137148 8053980 19% 15 3259187 62%
c u 115.87 1639 512 4 3 141 5361 809 5137211 8053980 19% 15 3259186 62%
c v 119.48 1641 512 4 3 141 5361 799 5137220 8053980 19% 15 3259186 62%
c w 125.23 1710 512 4 3 141 5361 825 5274653 7778675 19% 15 3259186 62%
c = 130.48 1769 512 4 3 141 5361 825 5397147 7698802 19% 15 3217875 61%
c
c  seconds      switched conflicts         irredundant     variables
c            MB  reductions   redundant             trail        remaining
c              level restarts         binary            glue
c
c d 131.62 1785 512 4 3 141 5361 825 3212400 7689656 19% 15 2205854 42%
c t 132.59 1878 512 4 3 141 5361 825 3212317 7689656 19% 15 2205835 42%
c b 132.97 1878 512 4 3 141 5361 825 3212317 7689656 19% 15 2180982 41%
c i 132.97 1878 512 4 3 141 5361 825 3212317 7689656 19% 15 2180982 41%
c i 134.26 1357 511 4 3 141 5368 828 3212320 7689656 19% 14 2180981 41%
c - 138.31 830 495 4 4 145 5609 762 2921981 7371654 19% 14 2180981 41%
c } 140.13 836 488 5 4 145 5754 791 2922003 7371654 19% 14 2180981 41%
c [ 140.13 836 389 5 4 145 5754 791 2922003 7371654 33% 42 2180981 41%
c I 140.17 836 389 5 4 145 5754 791 2922003 7371654 33% 42 2180981 41%
c - 146.69 844 324 5 5 146 7610 1121 2922153 7371654 20% 33 2180981 41%
c B 156.19 848 243 5 5 147 9525 2626 2922231 7371654 16% 36 2180981 41%
c i 157.45 852 241 5 5 147 9649 2736 2922237 7371654 15% 35 2180980 41%
c i 157.48 852 241 5 5 147 9654 2740 2922237 7371654 15% 35 2180979 41%
c i 158.78 852 237 5 5 147 9824 2889 2922253 7371654 15% 34 2180978 41%
c i 158.79 852 237 5 5 147 9825 2889 2922253 7371654 15% 34 2180977 41%
c i 158.80 852 237 5 5 147 9826 2889 2922253 7371654 15% 34 2180976 41%
c i 158.81 852 237 5 5 147 9827 2889 2922253 7371654 15% 34 2180974 41%
c - 159.28 852 236 5 6 147 9846 1646 2922244 7371654 15% 34 2180974 41%
c i 159.65 852 233 5 6 147 10069 1739 2922268 7371654 15% 33 2180973 41%
c i 159.86 852 231 5 6 147 10108 1774 2922269 7371654 15% 33 2180972 41%
c
c  seconds     switched  conflicts          irredundant     variables
c           MB  reductions    redundant              trail        remaining
c             level restarts           binary            glue
c
c i 159.97 852 231 5 6 147 10131 1795 2922269 7371654 15% 33 2180971 41%
c i 160.18 852 230 5 6 147 10156 1815 2922271 7371654 15% 33 2180965 41%
c i 160.31 852 229 5 6 147 10183 1839 2922271 7371654 15% 33 2180910 41%
c d 161.73 853 223 5 6 147 10313 1952 2765864 7367864 14% 32 2101812 40%
c b 162.28 870 223 5 6 147 10313 1952 2765864 7367864 14% 32 2101214 40%
c u 163.31 871 223 5 6 147 10313 1944 2765872 7367864 14% 32 2101214 40%
c v 164.33 871 223 5 6 147 10313 1895 2765920 7367864 14% 32 2101213 40%
c = 171.43 911 223 5 6 147 10313 1895 2773042 7353380 14% 32 2101163 40%
c d 172.01 876 223 5 6 147 10313 1895 2764787 7353342 14% 32 2097042 40%
c t 172.68 876 223 5 6 147 10313 1895 2764738 7353342 14% 32 2097041 40%
c b 172.92 891 223 5 6 147 10313 1895 2764738 7353342 14% 32 2096988 40%
c i 172.92 892 223 5 6 147 10313 1895 2764738 7353342 14% 32 2096988 40%
c i 172.96 892 223 5 6 147 10322 1900 2764741 7353342 14% 32 2096987 40%
c i 172.97 892 223 5 6 147 10325 1900 2764743 7353342 14% 32 2096986 40%
c i 173.56 892 220 5 6 147 10398 1961 2764750 7353342 14% 32 2096985 40%
c i 173.57 892 220 5 6 147 10405 1967 2764750 7353342 14% 32 2096984 40%
c i 173.62 892 219 5 6 147 10421 1982 2764750 7353342 14% 32 2096983 40%
c i 173.63 893 219 5 6 147 10425 1985 2764750 7353342 14% 32 2096982 40%
c i 174.20 893 216 5 6 147 10501 2049 2764761 7353342 14% 31 2096981 40%
c i 174.21 893 216 5 6 147 10503 2050 2764761 7353342 14% 31 2096980 40%
c
c  seconds     switched  conflicts          irredundant     variables
c           MB  reductions    redundant              trail        remaining
c             level restarts           binary            glue
c
c i 174.21 893 216 5 6 147 10504 2050 2764761 7353342 14% 31 2096979 40%
c i 174.22 893 216 5 6 147 10505 2050 2764761 7353342 14% 31 2096978 40%
c i 174.22 893 216 5 6 147 10506 2050 2764761 7353342 14% 31 2096977 40%
c i 174.22 893 216 5 6 147 10507 2050 2764761 7353342 14% 31 2096976 40%
c i 174.22 893 216 5 6 147 10509 2050 2764762 7353342 14% 31 2096975 40%
c i 174.23 893 216 5 6 147 10511 2050 2764763 7353342 14% 31 2096974 40%
c i 174.23 893 216 5 6 147 10513 2050 2764764 7353342 14% 31 2096973 40%
c i 174.24 893 215 5 6 147 10522 2051 2764771 7353342 14% 31 2096972 40%
c i 174.24 893 215 5 6 147 10527 2055 2764771 7353342 14% 31 2096971 40%
c i 174.24 893 215 5 6 147 10528 2055 2764771 7353342 14% 31 2096970 40%
c i 174.25 893 215 5 6 147 10529 2055 2764771 7353342 14% 31 2096969 40%
c i 174.25 893 215 5 6 147 10533 2058 2764771 7353342 14% 31 2096968 40%
c i 174.25 893 215 5 6 147 10534 2058 2764771 7353342 14% 31 2096967 40%
c i 174.26 893 215 5 6 147 10535 2058 2764771 7353342 14% 31 2096966 40%
c i 174.28 893 214 5 6 147 10546 2064 2764775 7353342 14% 31 2096964 40%
c i 174.28 893 214 5 6 147 10547 2064 2764775 7353342 14% 31 2096963 40%
c i 174.29 893 214 5 6 147 10549 2064 2764776 7353342 14% 31 2096962 40%
c i 174.29 893 214 5 6 147 10550 2064 2764776 7353342 14% 31 2096961 40%
c i 174.29 893 214 5 6 147 10551 2064 2764776 7353342 14% 31 2096959 40%
c i 174.30 893 214 5 6 147 10554 2065 2764777 7353342 14% 31 2096957 40%
c
c  seconds     switched  conflicts          irredundant     variables
c           MB  reductions    redundant              trail        remaining
c             level restarts           binary            glue
c
c i 174.48 893 213 5 6 147 10587 2095 2764779 7353342 14% 31 2096954 40%
c i 174.53 893 213 5 6 147 10597 2102 2764781 7353342 14% 31 2096953 40%
c i 174.54 893 212 5 6 147 10598 2102 2764781 7353342 14% 31 2096952 40%
c i 174.55 893 212 5 6 147 10605 2108 2764781 7353342 14% 31 2096951 40%
c i 174.55 893 212 5 6 147 10606 2108 2764781 7353342 14% 31 2096950 40%
c i 174.55 893 212 5 6 147 10607 2108 2764781 7353342 14% 31 2096948 40%
c i 174.56 893 212 5 6 147 10608 2108 2764781 7353342 14% 31 2096945 40%
c i 174.56 893 212 5 6 147 10609 2108 2764781 7353342 14% 31 2096944 40%
c i 174.56 893 212 5 6 147 10610 2108 2764781 7353342 14% 31 2096943 40%
c i 174.57 893 212 5 6 147 10611 2108 2764781 7353342 14% 31 2096942 40%
c i 174.57 893 212 5 6 147 10612 2108 2764781 7353342 14% 31 2096941 40%
c i 174.57 893 212 5 6 147 10613 2108 2764781 7353342 14% 31 2096940 40%
c i 174.57 893 212 5 6 147 10614 2108 2764781 7353342 14% 31 2096939 40%
c i 174.76 893 211 5 6 147 10642 2130 2764786 7353342 14% 30 2092995 40%
c i 174.80 893 210 5 6 147 10659 2141 2764791 7353342 14% 30 2092994 40%
c i 174.81 893 210 5 6 147 10663 2142 2764793 7353342 14% 30 2092993 40%
c i 174.93 893 209 5 6 147 10682 2159 2764794 7353342 14% 30 2092991 40%
c i 174.99 893 209 5 6 147 10695 2166 2764799 7353342 14% 30 2092990 40%
c i 174.99 893 209 5 6 147 10696 2166 2764799 7353342 14% 30 2092989 40%
c i 174.99 893 209 5 6 147 10697 2166 2764799 7353342 14% 30 2092988 40%
c
c  seconds     switched  conflicts          irredundant     variables
c           MB  reductions    redundant              trail        remaining
c             level restarts           binary            glue
c
c i 175.00 893 209 5 6 147 10698 2166 2764799 7353342 14% 30 2092987 40%
c i 175.08 893 208 5 6 147 10717 2178 2764805 7353342 13% 30 2087814 40%
c i 175.11 893 208 5 6 147 10719 2178 2764806 7353342 13% 30 2087231 40%
c ] 175.18 894 208 5 6 147 10722 2178 2764807 7353341 13% 30 1896719 36%
c 0 175.18 894 488 5 6 147 10722 2178 2764807 7353341 19% 14 1896719 36%
c
c ---- [ result ] ------------------------------------------------------------
c
s UNSATISFIABLE
c
c ---- [ profiling ] ---------------------------------------------------------
c
c         132.23   75.48 %  search
c          75.24   42.95 %  focused
c          56.99   32.53 %  stable
c          36.17   20.65 %  simplify
c          33.80   19.30 %  probe
c          17.79   10.16 %  vivify
c           7.98    4.56 %  sweep
c           6.77    3.87 %  parse
c           5.03    2.87 %  substitute
c           4.63    2.64 %  reduce
c           2.37    1.35 %  walking
c           2.00    1.14 %  backbone
c           1.81    1.03 %  warmup
c           0.99    0.57 %  transitive
c =============================================
c         175.18  100.00 %  total
c
c ---- [ statistics ] --------------------------------------------------------
c
c chronological:                         3283               31 %  conflicts
c conflicts:                            10722               61.21 per second
c decisions:                           163408               15.24 per conflict
c jumped_reasons:                    50301508                6 %  propagations
c propagations:                     814775277          4651073    per second
c queue_decisions:                      62733               38 %  decision
c random_decisions:                      9784                6 %  decision
c random_sequences:                         5             2144    interval
c reductions:                               6             1787    interval
c rephased:                                 4             2680    interval
c restarts:                               147               72.94 interval
c score_decisions:                      90891               56 %  decision
c substituted:                        1193778               23 %  variables
c switched:                                 5             2144    interval
c vivified:                               360                4 %  checks
c vivify_checks:                         8793             4396    per vivify
c vivify_units:                             2                0 %  variables
c walk_improved:                            1              100 %  walks
c walks:                                    1            10722    interval
c
c ---- [ resources ] ---------------------------------------------------------
c
c maximum-resident-set-size:       1970012160 bytes       1879 MB
c process-time:                         2m 55s             175.18 seconds
c
c ---- [ shutting down ] -----------------------------------------------------
c
c exit 20
